3
4
40
1 1.3 1.55 1.75 2.1
21 27 31 34 41 9 28 44 10 22 13 39 25 45 13 16 24 20 21 27 49 17 27 39 46 26 35 9 37 47 28 35 6 26 10 16 32 49 30 43 43 6 29 30 28 46 48 20 13 5 10 24 28 40 7 38 40 15 20 35 17 7 20 41 11 8 45 35 14 17 45 42 39 17 11 5 25 48 36 14 37 49 45 42 46 22 32 23 11 9 41 26 36 24 36 12 42 48 22 31 25 29 38 48 10 46 11 9 7 22 10 33 21 30 32 43 34 17 32 41 11 23 12 49 41 47 23 20 40 49 43 23 25 47 6 28 43 47 29 24 27 30 11 41 45 49 29 21 11 12 35 26 30 36 25 14 34 10 43 12 